120
150
48
45
58
51
41
40
54
40
58
57
46
53
51
40
52
59
43
48
40
40
40
49
44
58
40
52
51
56
43
40
58
53
57
40
44
40
51
45
55
57
41
52
40
40
40
53
49
48
41
54
55
57
46
47
40
53
58
41
51
52
45
53
44
57
49
40
40
40
53
45
52
40
40
40
54
50
46
40
42
43
40
40
40
49
47
54
55
58
40
54
57
51
42
51
43
56
57
48
45
49
49
54
57
42
44
60
53
53
44
40
57
55
44
51
44
53
53
46
57
47
